SCIP Status        : solving was interrupted [time limit reached]
Total Time         :    3600.02
  solving          :    3600.01
  presolving       :       0.08 (included in solving)
  reading          :       0.01
  copying          :       0.34 (22 #copies) (minimal 0.00, maximal 0.11, average 0.02)
Original Problem   :
  Problem name     : transswitch0039r
  Variables        : 329 (0 binary, 46 integer, 0 implicit integer, 283 continuous)
  Constraints      : 474 initial, 474 maximal
  Objective        : minimize, 1 non-zeros (abs.min = 1, abs.max = 1)
Presolved Problem  :
  Problem name     : t_transswitch0039r
  Variables        : 1180 (44 binary, 0 integer, 0 implicit integer, 1136 continuous)
  Constraints      : 345 initial, 377 maximal
  Objective        : minimize, 1 non-zeros (abs.min = 1, abs.max = 1)
  Nonzeros         : 1466 constraint, 22 clique table
Presolvers         :   ExecTime  SetupTime  Calls  FixedVars   AggrVars   ChgTypes  ChgBounds   AddHoles    DelCons    AddCons   ChgSides   ChgCoefs
  boundshift       :       0.00       0.00      0          0          0          0          0          0          0          0          0          0
  convertinttobin  :       0.00       0.00      0          0          0          0          0          0          0          0          0          0
  domcol           :       0.00       0.00      2          0          0          0          0          0          0          0          0          0
  dualagg          :       0.00       0.00      0          0          0          0          0          0          0          0          0          0
  dualcomp         :       0.00       0.00      2          0          0          0          0          0          0          0          0          0
  dualinfer        :       0.00       0.00      0          0          0          0          0          0          0          0          0          0
  dualsparsify     :       0.00       0.00      1          0          0          0          0          0          0          0          0          0
  gateextraction   :       0.00       0.00      0          0          0          0          0          0          0          0          0          0
  implics          :       0.00       0.00      2          0          0          0          0          0          0          0          0          0
  inttobinary      :       0.00       0.00      0          0          0          0          0          0          0          0          0          0
  qpkktref         :       0.00       0.00      0          0          0          0          0          0          0          0          0          0
  redvub           :       0.00       0.00      0          0          0          0          0          0          0          0          0          0
  sparsify         :       0.00       0.00      1          0          0          0          0          0          0          0          0          0
  stuffing         :       0.00       0.00      0          0          0          0          0          0          0          0          0          0
  trivial          :       0.00       0.00      4          0          0          0          0          0          0          0          0          0
  tworowbnd        :       0.00       0.00      0          0          0          0          0          0          0          0          0          0
  dualfix          :       0.00       0.00      4          0          0          0          0          0          0          0          0          0
  genvbounds       :       0.00       0.00      0          0          0          0          0          0          0          0          0          0
  probing          :       0.01       0.00      2          2          0          0          0          0          0          0          0          0
  pseudoobj        :       0.00       0.00      0          0          0          0          0          0          0          0          0          0
  symmetry         :       0.00       0.00      1          0          0          0          0          0          0          0          0          0
  vbounds          :       0.00       0.00      1          0          0          0          0          0          0          0          0          0
  varbound         :       0.00       0.00      0          0          0          0          0          0          0          0          0          0
  linear           :       0.00       0.00      6          1         41          0         81          0         81          0          0          0
  nonlinear        :       0.06       0.01      8          0          0          0        466          0          9          0          0          0
  benders          :       0.00       0.00      0          0          0          0          0          0          0          0          0          0
  components       :       0.00       0.00      1          0          0          0          0          0          0          0          0          0
  root node        :          -          -      -          1          -          -        541          -          -          -          -          -
Constraints        :     Number  MaxNumber  #Separate #Propagate    #EnfoLP    #EnfoRelax  #EnfoPS    #Check   #ResProp    Cutoffs    DomReds       Cuts    Applied      Conss   Children
  benderslp        :          0          0          0          0      57373          0          0       2787          0          0          0          0          0          0          0
  integral         :          0          0          0          0      57373          0          0       2787          0          0        745          0          0         46       6002
  varbound         :          0+         1          0          0          0          0          0          0          0          0          0          0          0          0          0
  linear           :         38+        78         31      45681          0          0          0       2781        151        101      28031          0          0          0          0
  nonlinear        :        307        307      81261      45580      54187          0          0       2778          0       4807     947068    3771994    3048549          0      19420
  benders          :          0          0          0          0          0          0          0          2          0          0          0          0          0          0          0
  countsols        :          0          0          0          0          0          0          0          2          0          0          0          0          0          0          0
  components       :          0          0          0          0          0          0          0          0          0          0          0          0          0          0          0
Constraint Timings :  TotalTime  SetupTime   Separate  Propagate     EnfoLP     EnfoPS     EnfoRelax   Check    ResProp    SB-Prop
  benderslp        :       0.02       0.00       0.00       0.00       0.02       0.00       0.00       0.00       0.00       0.00
  integral         :      23.43       0.00       0.00       0.00      23.43       0.00       0.00       0.00       0.00       0.00
  varbound         :       0.00       0.00       0.00       0.00       0.00       0.00       0.00       0.00       0.00       0.00
  linear           :       0.25       0.00       0.00       0.18       0.00       0.00       0.00       0.01       0.01       0.05
  nonlinear        :    1094.72       0.01     728.26       7.20     358.49       0.00       0.00       0.48       0.00       0.29
  benders          :       0.00       0.00       0.00       0.00       0.00       0.00       0.00       0.00       0.00       0.00
  countsols        :       0.00       0.00       0.00       0.00       0.00       0.00       0.00       0.00       0.00       0.00
  components       :       0.01       0.00       0.00       0.01       0.00       0.00       0.00       0.00       0.00       0.00
Propagators        : #Propagate   #ResProp    Cutoffs    DomReds
  dualfix          :          5          0          0          0
  genvbounds       :          0          0          0          0
  nlobbt           :          0          0          0          0
  obbt             :          3          0          0          0
  probing          :          0          0          0          0
  pseudoobj        :      95106          0          0          4
  redcost          :     181748          0          0        623
  rootredcost      :          1          0          0          1
  symmetry         :          0          0          0          0
  vbounds          :       4871          0          0          0
Propagator Timings :  TotalTime  SetupTime   Presolve  Propagate    ResProp    SB-Prop
  dualfix          :       0.00       0.00       0.00       0.00       0.00       0.00
  genvbounds       :       0.09       0.00       0.00       0.09       0.00       0.00
  nlobbt           :       0.00       0.00       0.00       0.00       0.00       0.00
  obbt             :       0.59       0.00       0.00       0.59       0.00       0.00
  probing          :       0.01       0.00       0.01       0.00       0.00       0.00
  pseudoobj        :       0.14       0.00       0.00       0.13       0.00       0.00
  redcost          :       1.06       0.00       0.00       1.06       0.00       0.00
  rootredcost      :       0.05       0.00       0.00       0.05       0.00       0.00
  symmetry         :       0.01       0.00       0.00       0.01       0.00       0.00
  vbounds          :       0.06       0.00       0.00       0.06       0.00       0.00
Conflict Analysis  :       Time      Calls    Success    DomReds  Conflicts   Literals    Reconvs ReconvLits   Dualrays   Nonzeros   LP Iters   (pool size: [--,--])
  propagation      :       0.01         57         53          -         68        6.4          0        0.0          -          -          -
  infeasible LP    :       0.04        138         72          -         44        4.8          1        5.0         72       11.9          0
  bound exceed. LP :       0.25        280         81          -          0        0.0          0        0.0         81      121.2        217
  strong branching :       0.00          0          0          -          0        0.0          0        0.0          -          -          0
  pseudo solution  :       0.00          0          0          -          0        0.0          0        0.0          -          -          -
  applied globally :       0.00          -          -          0          1        1.0          -          -         55          -          -
  applied locally  :          -          -          -          0          0        0.0          -          -         98          -          -
Separators         :   ExecTime  SetupTime      Calls  RootCalls    Cutoffs    DomReds  FoundCuts ViaPoolAdd  DirectAdd    Applied ViaPoolApp  DirectApp      Conss
  cut pool         :       0.10          -       8383         62          -          -       5137       9331          -          -          -          -          -    (maximal pool size:       3184)
  aggregation      :       1.09       0.00        125         31          0          0       4088       7849          4        719        718          1          0
  > cmir           :          -          -          -          -          -          -          -       7631          4        687        686          1          -
  > flowcover      :          -          -          -          -          -          -          -        215          0         32         32          0          -
  > knapsackcover  :          -          -          -          -          -          -          -          3          0          0          0          0          -
  cgmip            :       0.00       0.00          0          0          0          0          0          0          0          0          0          0          0
  clique           :       0.00       0.00         31         31          0          0          0          0          0          0          0          0          0
  closecuts        :       0.00       0.00          0          0          0          0          0          0          0          0          0          0          0
  convexproj       :       0.00       0.00          0          0          0          0          0          0          0          0          0          0          0
  disjunctive      :       0.00       0.00          0          0          0          0          0          0          0          0          0          0          0
  eccuts           :       0.00       0.00          0          0          0          0          0          0          0          0          0          0          0
  gauge            :       0.00       0.00          0          0          0          0          0          0          0          0          0          0          0
  gomory           :       0.06       0.00         90         10          0          0        632        749         16        272        266          6          0
  > gomorymi       :          -          -          -          -          -          -          -        749         16        272        266          6          -
  > strongcg       :          -          -          -          -          -          -          -          0          0          0          0          0          -
  impliedbounds    :       0.01       0.00        125         31          0          0        351        593          0        204        204          0          0
  interminor       :       0.00       0.00          0          0          0          0          0          0          0          0          0          0          0
  intobj           :       0.00       0.00          0          0          0          0          0          0          0          0          0          0          0
  mcf              :       0.00       0.00          1          1          0          0          0          0          0          0          0          0          0
  minor            :       0.13       0.00       1901         31          0          0      10791          0      10791       6188          0       6188          0
  mixing           :       0.13       0.00       2098         31          0          0         81        137          0         44         44          0          0
  oddcycle         :       0.00       0.00          0          0          0          0          0          0          0          0          0          0          0
  rapidlearning    :       0.00       0.00          0          0          0          0          0          0          0          0          0          0          0
  rlt              :       0.00       0.00         10         10          0          0          0          0          0          0          0          0          0
  zerohalf         :       0.03       0.00        100         20          0          0          1          3          0          1          1          0          0
Cutselectors       :   ExecTime  SetupTime      Calls  RootCalls   Selected     Forced   Filtered  RootSelec   RootForc   RootFilt 
  hybrid           :       3.16       0.00      72016         32    2600856          2     232738       3248          0       2462
Pricers            :   ExecTime  SetupTime      Calls       Vars
  problem variables:       0.00          -          0          0
Branching Rules    :   ExecTime  SetupTime   BranchLP  BranchExt   BranchPS    Cutoffs    DomReds       Cuts      Conss   Children
  allfullstrong    :       0.00       0.00          0          0          0          0          0          0          0          0
  cloud            :       0.00       0.00          0          0          0          0          0          0          0          0
  distribution     :       0.00       0.00          0          0          0          0          0          0          0          0
  fullstrong       :       0.00       0.00          0          0          0          0          0          0          0          0
  inference        :       0.00       0.00          0          0          0          0          0          0          0          0
  leastinf         :       0.00       0.00          0          0          0          0          0          0          0          0
  lookahead        :       0.00       0.00          0          0          0          0          0          0          0          0
  mostinf          :       0.00       0.00          0          0          0          0          0          0          0          0
  multaggr         :       0.00       0.00          0          0          0          0          0          0          0          0
  nodereopt        :       0.00       0.00          0          0          0          0          0          0          0          0
  pscost           :       0.00       0.00          0          0          0          0          0          0          0          0
  random           :       0.00       0.00          0          0          0          0          0          0          0          0
  relpscost        :      23.41       0.00       3186          0          0          0        745          0         47       6002
  vanillafullstrong:       0.00       0.00          0          0          0          0          0          0          0          0
Primal Heuristics  :   ExecTime  SetupTime      Calls      Found       Best
  LP solutions     :       0.00          -          -          0          0
  relax solutions  :       0.00          -          -          0          0
  pseudo solutions :       0.00          -          -          0          0
  strong branching :       0.00          -          -          0          0
  actconsdiving    :       0.00       0.00          0          0          0
  adaptivediving   :       0.24       0.00        192          0          0
  alns             :       0.34       0.00          7          0          0
  bound            :       0.00       0.00          0          0          0
  clique           :       0.06       0.00          1          0          0
  coefdiving       :       0.00       0.00          0          0          0
  completesol      :       0.00       0.00          0          0          0
  conflictdiving   :       0.07       0.00        191          0          0
  crossover        :       0.01       0.00          0          0          0
  dins             :       0.00       0.00          0          0          0
  distributiondivin:       8.83       0.00         18          0          0
  dps              :       0.00       0.00          0          0          0
  dualval          :       0.00       0.00          0          0          0
  farkasdiving     :       0.00       0.00          0          0          0
  feaspump         :       0.67       0.00         10          0          0
  fixandinfer      :       0.00       0.00          0          0          0
  fracdiving       :       0.08       0.00        193          0          0
  gins             :      23.71       0.00          6          0          0
  guideddiving     :       0.06       0.00        193          0          0
  indicator        :       0.05       0.00          0          0          0
  indicatordiving  :       0.00       0.00          0          0          0
  intdiving        :       0.00       0.00          0          0          0
  intshifting      :       0.48       0.00         11          0          0
  linesearchdiving :       0.06       0.00        194          0          0
  localbranching   :       0.00       0.00          0          0          0
  locks            :       0.03       0.00          1          0          0
  lpface           :       0.39       0.00          6          0          0
  mpec             :      25.93       0.00         11          0          0
  multistart       :       0.00       0.00          0          0          0
  mutation         :       0.00       0.00          0          0          0
  nlpdiving        :       1.27       0.00          7          0          0
  objpscostdiving  :       0.67       0.00         10          0          0
  octane           :       0.00       0.00          0          0          0
  ofins            :       0.01       0.00          0          0          0
  oneopt           :       0.09       0.00          1          0          0
  padm             :       0.00       0.00          0          0          0
  proximity        :       0.00       0.00          0          0          0
  pscostdiving     :       0.43       0.00         19          0          0
  randrounding     :       0.22       0.00        371          0          0
  rens             :       0.00       0.00          0          0          0
  reoptsols        :       0.00       0.00          0          0          0
  repair           :       0.00       0.00          0          0          0
  rins             :      11.38       0.00          9          0          0
  rootsoldiving    :       1.13       0.00         10          0          0
  rounding         :       0.21       0.00       1593          0          0
  shiftandpropagate:       0.01       0.00          1          0          0
  shifting         :       0.26       0.00        453          0          0
  simplerounding   :       0.04       0.00          0          0          0
  subnlp           :       5.90       0.00          7          1          1
  trivial          :       0.00       0.00          2          0          0
  trivialnegation  :       0.00       0.00          0          0          0
  trustregion      :       0.00       0.00          0          0          0
  trysol           :       0.03       0.00          0          0          0
  twoopt           :       0.00       0.00          0          0          0
  undercover       :       0.02       0.00          1          0          0
  vbounds          :       0.00       0.00          0          0          0
  veclendiving     :       0.08       0.00        194          0          0
  zeroobj          :       0.00       0.00          0          0          0
  zirounding       :       0.09       0.00       1000          0          0
  other solutions  :          -          -          -          0          -
Expressions        :   #IntEval  IntEvalTi   #RevProp  RevPropTi    DomReds    Cutoffs  #Estimate  EstimTime  Branching  #Simplify SimplifyTi Simplified
  pow              :     737092       0.14      59013       0.02      35305          0   18145179       1.20    1684122       2019       0.00         27
  prod             :    1048545       0.22     431858       0.25     146768        579   79545942     862.29   28709107       3578       0.00        959
  sum              :     182857       0.04     158011       0.05      44926        484       1191       0.00          0       2576       0.01       1290
  val              :          0       0.00          0       0.00          0          0          0       0.00          0          0       0.00          0
  var              :     505284       0.03          0       0.00          0          0          0       0.00          0       8931       0.00        103
  varidx           :          0       0.00          0       0.00          0          0          0       0.00          0          0       0.00          0
Nlhdlrs            :    Detects  DetectAll DetectTime   #IntEval  IntEvalTi   #RevProp  RevPropTi    DomReds    Cutoffs   #Enforce   EnfoTime       Cuts  Branching
  soc              :          0          0       0.00          0       0.00          0       0.00          0          0          0       0.00          0          0
  convex           :          0          0       0.00          0       0.00          0       0.00          0          0          0       0.00          0          0
  concave          :          0          0       0.00          0       0.00          0       0.00          0          0          0       0.00          0          0
  signomial        :        175        175       0.00          0       0.00          0       0.00          0          0   43334430       5.73        122          0
  quotient         :          0          0       0.00          0       0.00          0       0.00          0          0          0       0.00          0          0
  quadratic        :        193       1739       0.00     945901       1.15     863123       1.88     264206        508          0       0.00          0          0
  default          :       1199       7853       0.00    1962421       0.52     650026       0.74     226999       1823   97691878     919.79    3628607          0
  bilinear         :          8          8       0.00      16848       0.00       9489       0.00          0          0    1643417       0.26          0          0
  perspective      :          6          6       0.00          0       0.00          0       0.00         39          0     175273       0.67     286530          0
LP                 :       Time      Calls Iterations  Iter/call   Iter/sec  Time-0-It Calls-0-It    ItLimit
  primal LP        :     236.65      16007        117       1.83       0.49     235.35      15943
  dual LP          :    2049.36     131907    6165216      47.97    3008.36      59.64       3380
  lex dual LP      :       0.00          0          0       0.00          -
  barrier LP       :       0.00          0          0       0.00          -       0.00          0
  resolve instable :     164.95       5075     128388      25.30     778.32
  diving/probing LP:       7.97        478      39687      83.03    4977.11
  strong branching :      17.90       1100     141426     128.57    7900.71          -          -        605
    (at root node) :          -         31       4984     160.77          -
  conflict analysis:       0.02         11        217      19.73   11220.27
NLP relaxation     :
  solve time       :       1.27 (7 calls)
  convexity        :  nonconvex (38 linear rows, 84 convex ineq., 0 nonconvex ineq., 223 nonlinear eq. or two-sided ineq.)
NLP Solvers        :  #Problems  ProblemTi    #Solves  SolveTime      #Iter  Time/Iter      #Okay #TimeLimit #IterLimit #LObjLimit #Interrupt  #NumError #EvalError  #OutOfMem #LicenseEr #OtherTerm   #GlobOpt    #LocOpt  #Feasible #LocInfeas #GlobInfea #Unbounded   #Unknown
  ipopt            :         22       0.20         32      31.75       5954       0.01         25          0          7          0          0          0          0          0          0          0          0          1          0         17          0          0         14
B&B Tree           :
  number of runs   :          1
  nodes            :      18052 (12711 internal, 5341 leaves)
  feasible leaves  :          0
  infeas. leaves   :       4838
  objective leaves :        502
  nodes (total)    :      18052 (12711 internal, 5341 leaves)
  nodes left       :       7372
  max depth        :        103
  max depth (total):        103
  backtracks       :       2414 (13.4%)
  early backtracks :          0 (0.0%)
  nodes exc. ref.  :          0 (0.0%)
  delayed cutoffs  :          0
  repropagations   :          1 (0 domain reductions, 0 cutoffs)
  avg switch length:       5.68
  switching time   :     167.28
Root Node          :
  First LP value   : +2.40969025678960e+04
  First LP Iters   :       1027 (36631.47 Iter/sec)
  First LP Time    :       0.03
  Final Dual Bound : +2.66889750594373e+04
  Final Root Iters :       6528
  Root LP Estimate : +2.73404844450978e+04
Solution           :
  Solutions found  :          1 (1 improvements)
  First Solution   : +4.18690514658371e+04   (in run 1, after 1 nodes, 0.75 seconds, depth 0, found by <feaspump>)
  Gap First Sol.   :      73.75 %
  Gap Last Sol.    :      73.75 %
  Primal Bound     : +4.18690514658371e+04   (in run 1, after 1 nodes, 0.75 seconds, depth 0, found by <feaspump>)
  Dual Bound       : +2.70404425243093e+04
  Gap              :      54.84 %
Integrals          :      Total       Avg%
  primal-dual      :  127638.74      35.46
  primal-ref       :          -          - (not evaluated)
  dual-ref         :          -          - (not evaluated)
